Instance name: /mnt/c/Users/ORG/CLionProjects/uMV-FSTSP/Murray_Chu_2015_test_data/FSTSP/FSTSP_10_customer_problems/20140810T123437v9

drone speed: 0.6 miles/minute
uav non-eligible customer: 10 
Printing number of nodes: 11

Gurobi Optimizer version 11.0.0 build v11.0.0rc2 (linux64 - "Ubuntu 22.04.3 LTS")

CPU model: 13th Gen Intel(R) Core(TM) i5-13500, instruction set [SSE2|AVX|AVX2]
Thread count: 10 physical cores, 20 logical processors, using up to 20 threads

Optimize a model with 44485 rows, 1957 columns and 1837894 nonzeros
Model fingerprint: 0x4f986740
Variable types: 11 continuous, 1946 integer (1814 binary)
Coefficient statistics:
  Matrix range     [4e-01, 2e+01]
  Objective range  [8e-01, 2e+01]
  Bounds range     [1e+00, 1e+00]
  RHS range        [1e+00, 9e+00]
Found heuristic solution: objective 153.3902504
Presolve removed 24366 rows and 701 columns
Presolve time: 2.71s
Presolved: 20119 rows, 1256 columns, 710739 nonzeros
Variable types: 9 continuous, 1247 integer (1247 binary)
Found heuristic solution: objective 140.2738296
Root relaxation presolved: 20119 rows, 1256 columns, 710739 nonzeros


Root relaxation: objective 3.783030e+01, 3596 iterations, 1.82 seconds (4.40 work units)

    Nodes    |    Current Node    |     Objective Bounds      |     Work
 Expl Unexpl |  Obj  Depth IntInf | Incumbent    BestBd   Gap | It/Node Time

     0     0   37.83030    0  105  140.27383   37.83030  73.0%     -    4s
H    0     0                     106.5731174   37.83030  64.5%     -    4s
H    0     0                      55.3527979   37.83030  31.7%     -    5s
     0     0   38.24018    0  147   55.35280   38.24018  30.9%     -    5s
H    0     0                      53.7495383   38.28738  28.8%     -    6s
     0     0   38.28738    0  156   53.74954   38.28738  28.8%     -    6s
H    0     0                      53.3232120   38.28820  28.2%     -    6s
     0     0   38.37237    0  178   53.32321   38.37237  28.0%     -    7s
     0     0   38.41298    0  178   53.32321   38.41298  28.0%     -    8s
     0     0   38.43211    0  180   53.32321   38.43211  27.9%     -    9s
H    0     0                      52.5333307   38.44868  26.8%     -    9s
     0     0   38.44868    0  194   52.53333   38.44868  26.8%     -    9s
     0     0   38.50358    0  208   52.53333   38.50358  26.7%     -   10s
     0     0   38.52175    0  212   52.53333   38.52175  26.7%     -   10s
     0     0   38.55074    0  201   52.53333   38.55074  26.6%     -   12s
H    0     0                      49.6609939   38.55074  22.4%     -   12s
     0     0   38.71603    0  211   49.66099   38.71603  22.0%     -   13s
     0     0   38.82076    0  225   49.66099   38.82076  21.8%     -   14s
     0     0   38.84075    0  222   49.66099   38.84075  21.8%     -   14s
     0     0   38.85073    0  221   49.66099   38.85073  21.8%     -   14s
     0     0   38.85073    0  224   49.66099   38.85073  21.8%     -   14s
     0     0   38.91748    0  223   49.66099   38.91748  21.6%     -   15s
     0     2   38.91748    0  223   49.66099   38.91748  21.6%     -   18s
     3     8   42.41583    2   52   49.66099   38.95565  21.6%   435   20s
    15    26   42.41583    4   29   49.66099   39.46330  20.5%   659   25s
H   35    46                      48.5227057   39.62148  18.3%   464   27s
H   37    46                      47.4987834   39.62148  16.6%   447   27s
H   41    46                      44.4820168   39.62148  10.9%   416   27s
    97    50   42.52225   10   70   44.48202   39.62148  10.9%   237   30s
H  165    69                      43.4820168   39.62148  8.88%   181   33s
   198    59     cutoff   15        43.48202   39.67867  8.75%   164   35s
   354    38   42.99312    9   53   43.48202   39.69197  8.72%   125   40s

Cutting planes:
  Gomory: 3
  Cover: 53
  MIR: 15
  StrongCG: 1
  GUB cover: 4
  Zero half: 17
  RLT: 63

Explored 518 nodes (58436 simplex iterations) in 42.72 seconds (61.23 work units)
Thread count was 20 (of 20 available processors)

Solution count 10: 43.482 44.482 47.4988 ... 106.573

Optimal solution found (tolerance 1.00e-04)
Best objective 4.348201683998e+01, best bound 4.348201683998e+01, gap 0.0000%
Truck arcs: 
0 10 7.27469
2 8 5.10923
4 6 5.57365
5 7 0.777831
6 5 0.955922
7 11 4.89079
8 4 1.94864
9 2 6.13892
10 9 7.2754
Theta:
Theta_1 = 1
Theta_3 = 1
Drone arcs:
0 1
1 9
3 6
9 3
Gamma:
gamma_1_0_10= 1
gamma_1_10_9= 1
gamma_3_2_8= 1
gamma_3_4_6= 1
gamma_3_8_4= 1
gamma_3_9_2= 1
Sigma:
Sigma_1 = 0.478969
Sigma_2 = 0
Sigma_3 = 0.0579832
Sigma_4 = 0
Sigma_5 = 0
Sigma_6 = 0
Sigma_7 = 0
Sigma_8 = 0
Sigma_9 = 0
Sigma_10 = 0
Sigma_11 = 0
middle of 1 sortie are: 10 
middle of 3 sortie are: 2 4 8 
Objective: 43.482
Number of sorties: 2
